(set-info :source |printed by MathSAT|)
(declare-fun call_moesi.modified_mo.next () Int)
(declare-fun call_moesi.ite7.next () Int)
(declare-fun call_moesi.ite6 () Int)
(declare-fun call_moesi.ite20.next () Int)
(declare-fun call_excludes4.excludes.next () Bool)
(declare-fun erreur_mo () Bool)
(declare-fun call_moesi.flby3 () Int)
(declare-fun call_moesi.flby4.next () Int)
(declare-fun call_moesi.invalid_mo () Int)
(declare-fun call_moesi.garde_mo2.next () Bool)
(declare-fun call_moesi.ite9.next () Int)
(declare-fun erreur_mo.next () Bool)
(declare-fun param_etat_mo4 () Bool)
(declare-fun call_moesi.ite18 () Int)
(declare-fun flby.next () Bool)
(declare-fun call_moesi.flby2.next () Int)
(declare-fun call_moesi.ite27.next () Int)
(declare-fun call_moesi.exclusive_mo.next () Int)
(declare-fun call_moesi.flby4 () Int)
(declare-fun modified_mo.next () Int)
(declare-fun param_etat_mo4.next () Bool)
(declare-fun call_moesi.garde_mo1.next () Bool)
(declare-fun call_moesi.ite15.next () Int)
(declare-fun env () Bool)
(declare-fun call_moesi.ite3 () Int)
(declare-fun call_moesi.ite8 () Int)
(declare-fun call_moesi.ite12.next () Int)
(declare-fun call_moesi.flby5.next () Int)
(declare-fun owned_mo () Int)
(declare-fun call_moesi.ite13 () Int)
(declare-fun call_Sofar.flby () Bool)
(declare-fun call_moesi.ite28 () Int)
(declare-fun call_moesi.erreur_mo.next () Bool)
(declare-fun call_moesi.ite31.next () Int)
(declare-fun call_moesi.ite24 () Int)
(declare-fun call_moesi.ite11 () Int)
(declare-fun param_etat_mo3 () Bool)
(declare-fun call_moesi.flby3.next () Int)
(declare-fun call_excludes4.excludes () Bool)
(declare-fun call_moesi.ite32.next () Int)
(declare-fun param_etat_mo2 () Bool)
(declare-fun call_moesi.ite13.next () Int)
(declare-fun call_moesi.ite24.next () Int)
(declare-fun call_moesi.garde_mo3.next () Bool)
(declare-fun call_moesi.shared_mo () Int)
(declare-fun call_moesi.ite30.next () Int)
(declare-fun call_moesi.ite11.next () Int)
(declare-fun call_moesi.ite29.next () Int)
(declare-fun call_moesi.ite25.next () Int)
(declare-fun call_moesi.ite18.next () Int)
(declare-fun call_moesi.ite10.next () Int)
(declare-fun call_moesi.ite21 () Int)
(declare-fun call_Sofar.Sofar.next () Bool)
(declare-fun call_moesi.ite2.next () Int)
(declare-fun exclusive_mo () Int)
(declare-fun exclusive_mo.next () Int)
(declare-fun modified_mo () Int)
(declare-fun call_moesi.invalid_mo.next () Int)
(declare-fun call_moesi.ite21.next () Int)
(declare-fun call_moesi.ite22.next () Int)
(declare-fun call_moesi.ite26.next () Int)
(declare-fun param_etat_mo3.next () Bool)
(declare-fun call_moesi.ite10 () Int)
(declare-fun call_moesi.ite7 () Int)
(declare-fun call_moesi.ite33 () Int)
(declare-fun invalid_mo () Int)
(declare-fun param_etat_mo1 () Bool)
(declare-fun flby () Bool)
(declare-fun call_moesi.flby5 () Int)
(declare-fun call_moesi.ite5.next () Int)
(declare-fun call_moesi.ite15 () Int)
(declare-fun call_moesi.ite6.next () Int)
(declare-fun call_moesi.ite32 () Int)
(declare-fun call_moesi.ite17 () Int)
(declare-fun call_moesi.exclusive_mo () Int)
(declare-fun call_moesi.ite5 () Int)
(declare-fun call_moesi.ite17.next () Int)
(declare-fun call_moesi.ite2 () Int)
(declare-fun _OK_.next () Bool)
(declare-fun call_moesi.ite () Int)
(declare-fun call_moesi.ite3.next () Int)
(declare-fun call_moesi.ite16.next () Int)
(declare-fun shared_mo.next () Int)
(declare-fun call_moesi.ite30 () Int)
(declare-fun call_moesi.ite14 () Int)
(declare-fun call_moesi.ite16 () Int)
(declare-fun env.next () Bool)
(declare-fun call_moesi.erreur_mo () Bool)
(declare-fun call_moesi.ite29 () Int)
(declare-fun call_moesi.shared_mo.next () Int)
(declare-fun call_moesi.garde_mo4.next () Bool)
(declare-fun call_moesi.flby.next () Bool)
(declare-fun call_moesi.flby6.next () Int)
(declare-fun call_moesi.ite28.next () Int)
(declare-fun shared_mo () Int)
(declare-fun call_moesi.ite27 () Int)
(declare-fun call_moesi.owned_mo () Int)
(declare-fun invalid_mo.next () Int)
(declare-fun call_moesi.ite22 () Int)
(declare-fun call_moesi.ite8.next () Int)
(declare-fun call_moesi.modified_mo () Int)
(declare-fun call_moesi.owned_mo.next () Int)
(declare-fun call_moesi.flby2 () Int)
(declare-fun call_Sofar.flby.next () Bool)
(declare-fun call_moesi.ite20 () Int)
(declare-fun _OK_ () Bool)
(declare-fun call_moesi.flby () Bool)
(declare-fun call_moesi.ite34.next () Int)
(declare-fun call_moesi.flby6 () Int)
(declare-fun call_moesi.ite19.next () Int)
(declare-fun call_moesi.ite14.next () Int)
(declare-fun call_moesi.ite26 () Int)
(declare-fun call_Sofar.Sofar () Bool)
(declare-fun call_moesi.ite9 () Int)
(declare-fun call_moesi.ite34 () Int)
(declare-fun call_moesi.ite23.next () Int)
(declare-fun param_etat_mo2.next () Bool)
(declare-fun call_moesi.ite.next () Int)
(declare-fun call_moesi.ite23 () Int)
(declare-fun call_moesi.ite4.next () Int)
(declare-fun param_etat_mo1.next () Bool)
(declare-fun owned_mo.next () Int)
(declare-fun call_moesi.ite33.next () Int)
(define-fun .def_1339 () Bool (= call_Sofar.flby.next call_Sofar.Sofar.next))
(define-fun .def_1334 () Bool (and param_etat_mo4.next param_etat_mo3.next))
(define-fun .def_1332 () Bool (and param_etat_mo4.next param_etat_mo2.next))
(define-fun .def_1330 () Bool (and param_etat_mo2.next param_etat_mo3.next))
(define-fun .def_1328 () Bool (and param_etat_mo4.next param_etat_mo1.next))
(define-fun .def_1326 () Bool (and param_etat_mo1.next param_etat_mo3.next))
(define-fun .def_1325 () Bool (and param_etat_mo2.next param_etat_mo1.next))
(define-fun .def_1327 () Bool (or .def_1325 .def_1326))
(define-fun .def_1329 () Bool (or .def_1327 .def_1328))
(define-fun .def_1331 () Bool (or .def_1329 .def_1330))
(define-fun .def_1333 () Bool (or .def_1331 .def_1332))
(define-fun .def_1335 () Bool (or .def_1333 .def_1334))
(define-fun .def_1336 () Bool (not .def_1335))
(define-fun .def_1337 () Bool (= call_excludes4.excludes.next .def_1336))
(define-fun .def_1323 () Bool (= call_moesi.flby.next call_moesi.erreur_mo.next))
(define-fun .def_1321 () Bool (= call_moesi.flby6.next call_moesi.owned_mo.next))
(define-fun .def_1319 () Bool (= call_moesi.flby5.next call_moesi.invalid_mo.next))
(define-fun .def_1317 () Bool (= call_moesi.flby4.next call_moesi.shared_mo.next))
(define-fun .def_1315 () Bool (= call_moesi.exclusive_mo.next call_moesi.flby3.next))
(define-fun .def_1313 () Bool (= call_moesi.flby2.next call_moesi.modified_mo.next))
(define-fun .def_1311 () Bool (= env.next call_Sofar.Sofar.next))
(define-fun .def_1308 () Bool (= erreur_mo.next call_moesi.erreur_mo.next))
(define-fun .def_1304 () Bool (= owned_mo.next call_moesi.owned_mo.next))
(define-fun .def_1301 () Bool (= invalid_mo.next call_moesi.invalid_mo.next))
(define-fun .def_1298 () Bool (= shared_mo.next call_moesi.shared_mo.next))
(define-fun .def_1295 () Bool (= exclusive_mo.next call_moesi.exclusive_mo.next))
(define-fun .def_1293 () Bool (= modified_mo.next call_moesi.modified_mo.next))
(define-fun .def_1288 () Bool (not env.next))
(define-fun .def_1289 () Bool (or flby.next .def_1288))
(define-fun .def_1290 () Bool (= _OK_.next .def_1289))
(define-fun .def_1282 () Bool (= call_moesi.ite32.next call_moesi.ite33.next))
(define-fun .def_1283 () Bool (or param_etat_mo3.next .def_1282))
(define-fun .def_1279 () Bool (= call_moesi.ite30.next call_moesi.ite33.next))
(define-fun .def_1258 () Bool (not param_etat_mo3.next))
(define-fun .def_1280 () Bool (or .def_1258 .def_1279))
(define-fun .def_1276 () Bool (= call_moesi.ite26.next call_moesi.ite27.next))
(define-fun .def_1277 () Bool (or param_etat_mo3.next .def_1276))
(define-fun .def_1273 () Bool (= call_moesi.ite24.next call_moesi.ite27.next))
(define-fun .def_1274 () Bool (or .def_1258 .def_1273))
(define-fun .def_1270 () Bool (= call_moesi.ite20.next call_moesi.ite21.next))
(define-fun .def_1271 () Bool (or param_etat_mo3.next .def_1270))
(define-fun .def_1267 () Bool (= call_moesi.ite18.next call_moesi.ite21.next))
(define-fun .def_1268 () Bool (or .def_1258 .def_1267))
(define-fun .def_1264 () Bool (= call_moesi.ite13.next call_moesi.ite14.next))
(define-fun .def_1265 () Bool (or param_etat_mo3.next .def_1264))
(define-fun .def_1261 () Bool (= call_moesi.ite11.next call_moesi.ite14.next))
(define-fun .def_1262 () Bool (or .def_1258 .def_1261))
(define-fun .def_1257 () Bool (= call_moesi.ite3.next call_moesi.ite6.next))
(define-fun .def_1259 () Bool (or .def_1257 .def_1258))
(define-fun .def_1254 () Bool (= call_moesi.ite5.next call_moesi.ite6.next))
(define-fun .def_1256 () Bool (or .def_1254 param_etat_mo3.next))
(define-fun .def_1260 () Bool (and .def_1256 .def_1259))
(define-fun .def_1263 () Bool (and .def_1260 .def_1262))
(define-fun .def_1266 () Bool (and .def_1263 .def_1265))
(define-fun .def_1269 () Bool (and .def_1266 .def_1268))
(define-fun .def_1272 () Bool (and .def_1269 .def_1271))
(define-fun .def_1275 () Bool (and .def_1272 .def_1274))
(define-fun .def_1278 () Bool (and .def_1275 .def_1277))
(define-fun .def_1281 () Bool (and .def_1278 .def_1280))
(define-fun .def_1284 () Bool (and .def_1281 .def_1283))
(define-fun .def_1250 () Bool (= call_moesi.ite34.next call_moesi.ite33.next))
(define-fun .def_1251 () Bool (or param_etat_mo1.next .def_1250))
(define-fun .def_1246 () Bool (= call_moesi.ite29.next call_moesi.ite34.next))
(define-fun .def_1223 () Bool (not param_etat_mo1.next))
(define-fun .def_1247 () Bool (or .def_1223 .def_1246))
(define-fun .def_1243 () Bool (= call_moesi.ite28.next call_moesi.ite27.next))
(define-fun .def_1244 () Bool (or param_etat_mo1.next .def_1243))
(define-fun .def_1239 () Bool (= call_moesi.ite23.next call_moesi.ite28.next))
(define-fun .def_1240 () Bool (or .def_1223 .def_1239))
(define-fun .def_1236 () Bool (= call_moesi.ite22.next call_moesi.ite21.next))
(define-fun .def_1237 () Bool (or param_etat_mo1.next .def_1236))
(define-fun .def_1232 () Bool (= call_moesi.ite17.next call_moesi.ite22.next))
(define-fun .def_1233 () Bool (or .def_1223 .def_1232))
(define-fun .def_1229 () Bool (= call_moesi.ite16.next call_moesi.ite15.next))
(define-fun .def_1230 () Bool (or param_etat_mo1.next .def_1229))
(define-fun .def_1226 () Bool (= call_moesi.ite9.next call_moesi.ite16.next))
(define-fun .def_1227 () Bool (or .def_1223 .def_1226))
(define-fun .def_1222 () Bool (= call_moesi.ite.next call_moesi.ite8.next))
(define-fun .def_1224 () Bool (or .def_1222 .def_1223))
(define-fun .def_1219 () Bool (= call_moesi.ite8.next call_moesi.ite7.next))
(define-fun .def_1221 () Bool (or .def_1219 param_etat_mo1.next))
(define-fun .def_1225 () Bool (and .def_1221 .def_1224))
(define-fun .def_1228 () Bool (and .def_1225 .def_1227))
(define-fun .def_1231 () Bool (and .def_1228 .def_1230))
(define-fun .def_1234 () Bool (and .def_1231 .def_1233))
(define-fun .def_1238 () Bool (and .def_1234 .def_1237))
(define-fun .def_1241 () Bool (and .def_1238 .def_1240))
(define-fun .def_1245 () Bool (and .def_1241 .def_1244))
(define-fun .def_1248 () Bool (and .def_1245 .def_1247))
(define-fun .def_1252 () Bool (and .def_1248 .def_1251))
(define-fun .def_1216 () Bool (= call_moesi.ite15.next call_moesi.ite14.next))
(define-fun .def_1217 () Bool (or param_etat_mo2.next .def_1216))
(define-fun .def_1212 () Bool (= call_moesi.ite10.next call_moesi.ite15.next))
(define-fun .def_1208 () Bool (not param_etat_mo2.next))
(define-fun .def_1213 () Bool (or .def_1208 .def_1212))
(define-fun .def_1207 () Bool (= call_moesi.ite2.next call_moesi.ite7.next))
(define-fun .def_1209 () Bool (or .def_1207 .def_1208))
(define-fun .def_1204 () Bool (= call_moesi.ite7.next call_moesi.ite6.next))
(define-fun .def_1206 () Bool (or .def_1204 param_etat_mo2.next))
(define-fun .def_1210 () Bool (and .def_1206 .def_1209))
(define-fun .def_1214 () Bool (and .def_1210 .def_1213))
(define-fun .def_1218 () Bool (and .def_1214 .def_1217))
(define-fun .def_1253 () Bool (and .def_1218 .def_1252))
(define-fun .def_1285 () Bool (and .def_1253 .def_1284))
(define-fun .def_1291 () Bool (and .def_1285 .def_1290))
(define-fun .def_1294 () Bool (and .def_1291 .def_1293))
(define-fun .def_1296 () Bool (and .def_1294 .def_1295))
(define-fun .def_1299 () Bool (and .def_1296 .def_1298))
(define-fun .def_1302 () Bool (and .def_1299 .def_1301))
(define-fun .def_1305 () Bool (and .def_1302 .def_1304))
(define-fun .def_1309 () Bool (and .def_1305 .def_1308))
(define-fun .def_1312 () Bool (and .def_1309 .def_1311))
(define-fun .def_1314 () Bool (and .def_1312 .def_1313))
(define-fun .def_1316 () Bool (and .def_1314 .def_1315))
(define-fun .def_1318 () Bool (and .def_1316 .def_1317))
(define-fun .def_1320 () Bool (and .def_1318 .def_1319))
(define-fun .def_1322 () Bool (and .def_1320 .def_1321))
(define-fun .def_1324 () Bool (and .def_1322 .def_1323))
(define-fun .def_1338 () Bool (and .def_1324 .def_1337))
(define-fun .def_1340 () Bool (and .def_1338 .def_1339))
(define-fun .def_925 () Bool (= call_Sofar.flby call_Sofar.Sofar))
(define-fun .def_920 () Bool (and param_etat_mo4 param_etat_mo3))
(define-fun .def_918 () Bool (and param_etat_mo4 param_etat_mo2))
(define-fun .def_916 () Bool (and param_etat_mo2 param_etat_mo3))
(define-fun .def_914 () Bool (and param_etat_mo4 param_etat_mo1))
(define-fun .def_912 () Bool (and param_etat_mo1 param_etat_mo3))
(define-fun .def_911 () Bool (and param_etat_mo2 param_etat_mo1))
(define-fun .def_913 () Bool (or .def_911 .def_912))
(define-fun .def_915 () Bool (or .def_913 .def_914))
(define-fun .def_917 () Bool (or .def_915 .def_916))
(define-fun .def_919 () Bool (or .def_917 .def_918))
(define-fun .def_921 () Bool (or .def_919 .def_920))
(define-fun .def_922 () Bool (not .def_921))
(define-fun .def_923 () Bool (= call_excludes4.excludes .def_922))
(define-fun .def_909 () Bool (= call_moesi.flby call_moesi.erreur_mo))
(define-fun .def_907 () Bool (= call_moesi.flby6 call_moesi.owned_mo))
(define-fun .def_905 () Bool (= call_moesi.flby5 call_moesi.invalid_mo))
(define-fun .def_903 () Bool (= call_moesi.flby4 call_moesi.shared_mo))
(define-fun .def_901 () Bool (= call_moesi.flby3 call_moesi.exclusive_mo))
(define-fun .def_899 () Bool (= call_moesi.flby2 call_moesi.modified_mo))
(define-fun .def_897 () Bool (= env call_Sofar.Sofar))
(define-fun .def_894 () Bool (= erreur_mo call_moesi.erreur_mo))
(define-fun .def_890 () Bool (= owned_mo call_moesi.owned_mo))
(define-fun .def_886 () Bool (= invalid_mo call_moesi.invalid_mo))
(define-fun .def_882 () Bool (= shared_mo call_moesi.shared_mo))
(define-fun .def_878 () Bool (= exclusive_mo call_moesi.exclusive_mo))
(define-fun .def_874 () Bool (= modified_mo call_moesi.modified_mo))
(define-fun .def_868 () Bool (not env))
(define-fun .def_869 () Bool (or flby .def_868))
(define-fun .def_870 () Bool (= _OK_ .def_869))
(define-fun .def_862 () Bool (= call_moesi.ite32 call_moesi.ite33))
(define-fun .def_863 () Bool (or param_etat_mo3 .def_862))
(define-fun .def_859 () Bool (= call_moesi.ite30 call_moesi.ite33))
(define-fun .def_837 () Bool (not param_etat_mo3))
(define-fun .def_860 () Bool (or .def_837 .def_859))
(define-fun .def_856 () Bool (= call_moesi.ite26 call_moesi.ite27))
(define-fun .def_857 () Bool (or param_etat_mo3 .def_856))
(define-fun .def_853 () Bool (= call_moesi.ite27 call_moesi.ite24))
(define-fun .def_854 () Bool (or .def_837 .def_853))
(define-fun .def_849 () Bool (= call_moesi.ite20 call_moesi.ite21))
(define-fun .def_850 () Bool (or param_etat_mo3 .def_849))
(define-fun .def_846 () Bool (= call_moesi.ite18 call_moesi.ite21))
(define-fun .def_847 () Bool (or .def_837 .def_846))
(define-fun .def_843 () Bool (= call_moesi.ite13 call_moesi.ite14))
(define-fun .def_844 () Bool (or param_etat_mo3 .def_843))
(define-fun .def_840 () Bool (= call_moesi.ite11 call_moesi.ite14))
(define-fun .def_841 () Bool (or .def_837 .def_840))
(define-fun .def_836 () Bool (= call_moesi.ite3 call_moesi.ite6))
(define-fun .def_838 () Bool (or .def_836 .def_837))
(define-fun .def_833 () Bool (= call_moesi.ite5 call_moesi.ite6))
(define-fun .def_835 () Bool (or .def_833 param_etat_mo3))
(define-fun .def_839 () Bool (and .def_835 .def_838))
(define-fun .def_842 () Bool (and .def_839 .def_841))
(define-fun .def_845 () Bool (and .def_842 .def_844))
(define-fun .def_848 () Bool (and .def_845 .def_847))
(define-fun .def_851 () Bool (and .def_848 .def_850))
(define-fun .def_855 () Bool (and .def_851 .def_854))
(define-fun .def_858 () Bool (and .def_855 .def_857))
(define-fun .def_861 () Bool (and .def_858 .def_860))
(define-fun .def_864 () Bool (and .def_861 .def_863))
(define-fun .def_829 () Bool (= call_moesi.ite34 call_moesi.ite33))
(define-fun .def_830 () Bool (or param_etat_mo1 .def_829))
(define-fun .def_825 () Bool (= call_moesi.ite29 call_moesi.ite34))
(define-fun .def_795 () Bool (not param_etat_mo1))
(define-fun .def_826 () Bool (or .def_795 .def_825))
(define-fun .def_820 () Bool (= call_moesi.ite28 call_moesi.ite27))
(define-fun .def_821 () Bool (or param_etat_mo1 .def_820))
(define-fun .def_816 () Bool (= call_moesi.ite23 call_moesi.ite28))
(define-fun .def_817 () Bool (or .def_795 .def_816))
(define-fun .def_811 () Bool (= call_moesi.ite22 call_moesi.ite21))
(define-fun .def_812 () Bool (or param_etat_mo1 .def_811))
(define-fun .def_807 () Bool (= call_moesi.ite17 call_moesi.ite22))
(define-fun .def_808 () Bool (or .def_795 .def_807))
(define-fun .def_802 () Bool (= call_moesi.ite15 call_moesi.ite16))
(define-fun .def_803 () Bool (or param_etat_mo1 .def_802))
(define-fun .def_799 () Bool (= call_moesi.ite9 call_moesi.ite16))
(define-fun .def_800 () Bool (or .def_795 .def_799))
(define-fun .def_794 () Bool (= call_moesi.ite call_moesi.ite8))
(define-fun .def_796 () Bool (or .def_794 .def_795))
(define-fun .def_791 () Bool (= call_moesi.ite7 call_moesi.ite8))
(define-fun .def_793 () Bool (or .def_791 param_etat_mo1))
(define-fun .def_797 () Bool (and .def_793 .def_796))
(define-fun .def_801 () Bool (and .def_797 .def_800))
(define-fun .def_804 () Bool (and .def_801 .def_803))
(define-fun .def_809 () Bool (and .def_804 .def_808))
(define-fun .def_813 () Bool (and .def_809 .def_812))
(define-fun .def_818 () Bool (and .def_813 .def_817))
(define-fun .def_822 () Bool (and .def_818 .def_821))
(define-fun .def_827 () Bool (and .def_822 .def_826))
(define-fun .def_831 () Bool (and .def_827 .def_830))
(define-fun .def_787 () Bool (= call_moesi.ite15 call_moesi.ite14))
(define-fun .def_788 () Bool (or param_etat_mo2 .def_787))
(define-fun .def_783 () Bool (= call_moesi.ite10 call_moesi.ite15))
(define-fun .def_778 () Bool (not param_etat_mo2))
(define-fun .def_784 () Bool (or .def_778 .def_783))
(define-fun .def_777 () Bool (= call_moesi.ite7 call_moesi.ite2))
(define-fun .def_779 () Bool (or .def_777 .def_778))
(define-fun .def_773 () Bool (= call_moesi.ite7 call_moesi.ite6))
(define-fun .def_775 () Bool (or .def_773 param_etat_mo2))
(define-fun .def_780 () Bool (and .def_775 .def_779))
(define-fun .def_785 () Bool (and .def_780 .def_784))
(define-fun .def_789 () Bool (and .def_785 .def_788))
(define-fun .def_832 () Bool (and .def_789 .def_831))
(define-fun .def_865 () Bool (and .def_832 .def_864))
(define-fun .def_871 () Bool (and .def_865 .def_870))
(define-fun .def_875 () Bool (and .def_871 .def_874))
(define-fun .def_879 () Bool (and .def_875 .def_878))
(define-fun .def_883 () Bool (and .def_879 .def_882))
(define-fun .def_887 () Bool (and .def_883 .def_886))
(define-fun .def_891 () Bool (and .def_887 .def_890))
(define-fun .def_895 () Bool (and .def_891 .def_894))
(define-fun .def_898 () Bool (and .def_895 .def_897))
(define-fun .def_900 () Bool (and .def_898 .def_899))
(define-fun .def_902 () Bool (and .def_900 .def_901))
(define-fun .def_904 () Bool (and .def_902 .def_903))
(define-fun .def_906 () Bool (and .def_904 .def_905))
(define-fun .def_908 () Bool (and .def_906 .def_907))
(define-fun .def_910 () Bool (and .def_908 .def_909))
(define-fun .def_924 () Bool (and .def_910 .def_923))
(define-fun .def_926 () Bool (and .def_924 .def_925))
(define-fun .def_1341 () Bool (and .def_926 .def_1340))
(define-fun .def_1198 () Bool (and call_Sofar.Sofar call_excludes4.excludes.next))
(define-fun .def_1200 () Bool (= .def_1198 call_Sofar.flby.next))
(define-fun .def_1195 () Bool (= call_moesi.ite34.next call_moesi.flby6.next))
(define-fun .def_1191 () Bool (= call_moesi.ite28.next call_moesi.flby5.next))
(define-fun .def_1187 () Bool (= call_moesi.ite22.next call_moesi.flby4.next))
(define-fun .def_1183 () Bool (= call_moesi.ite16.next call_moesi.flby3.next))
(define-fun .def_1179 () Bool (= call_moesi.ite8.next call_moesi.flby2.next))
(define-fun .def_1173 () Bool (<= 2 call_moesi.exclusive_mo.next))
(define-fun .def_1175 () Bool (= .def_1173 call_moesi.flby.next))
(define-fun .def_1136 () Bool (<= 1 call_moesi.invalid_mo))
(define-fun .def_1169 () Bool (= call_moesi.garde_mo4.next .def_1136))
(define-fun .def_1166 () Bool (= call_moesi.ite31.next 0))
(define-fun .def_1053 () Bool (not call_moesi.garde_mo4.next))
(define-fun .def_1167 () Bool (or .def_1053 .def_1166))
(define-fun .def_1163 () Bool (= call_moesi.ite19.next 0))
(define-fun .def_1164 () Bool (or .def_1053 .def_1163))
(define-fun .def_1160 () Bool (= call_moesi.ite4.next 0))
(define-fun .def_1161 () Bool (or .def_1053 .def_1160))
(define-fun .def_1158 () Bool (= call_moesi.ite12.next 1))
(define-fun .def_1159 () Bool (or .def_1053 .def_1158))
(define-fun .def_1162 () Bool (and .def_1159 .def_1161))
(define-fun .def_1165 () Bool (and .def_1162 .def_1164))
(define-fun .def_1168 () Bool (and .def_1165 .def_1167))
(define-fun .def_1170 () Bool (and .def_1168 .def_1169))
(define-fun .def_1154 () Bool (<= call_moesi.owned_mo call_moesi.shared_mo))
(define-fun .def_1155 () Bool (= call_moesi.garde_mo3.next .def_1154))
(define-fun .def_1151 () Bool (= call_moesi.ite30.next 0))
(define-fun .def_1038 () Bool (not call_moesi.garde_mo3.next))
(define-fun .def_1152 () Bool (or .def_1038 .def_1151))
(define-fun .def_1148 () Bool (= call_moesi.ite18.next 0))
(define-fun .def_1149 () Bool (or .def_1038 .def_1148))
(define-fun .def_1145 () Bool (= call_moesi.ite3.next 0))
(define-fun .def_1146 () Bool (or .def_1038 .def_1145))
(define-fun .def_1143 () Bool (= call_moesi.ite11.next 1))
(define-fun .def_1144 () Bool (or .def_1038 .def_1143))
(define-fun .def_1147 () Bool (and .def_1144 .def_1146))
(define-fun .def_1150 () Bool (and .def_1147 .def_1149))
(define-fun .def_1153 () Bool (and .def_1150 .def_1152))
(define-fun .def_1156 () Bool (and .def_1153 .def_1155))
(define-fun .def_1140 () Bool (<= 1 call_moesi.exclusive_mo))
(define-fun .def_1141 () Bool (= call_moesi.garde_mo2.next .def_1140))
(define-fun .def_1137 () Bool (= call_moesi.garde_mo1.next .def_1136))
(define-fun .def_1133 () Bool (= call_moesi.ite.next 0))
(define-fun .def_1063 () Bool (not call_moesi.garde_mo1.next))
(define-fun .def_1134 () Bool (or .def_1063 .def_1133))
(define-fun .def_1131 () Bool (= call_moesi.ite9.next 0))
(define-fun .def_1132 () Bool (or .def_1063 .def_1131))
(define-fun .def_1135 () Bool (and .def_1132 .def_1134))
(define-fun .def_1138 () Bool (and .def_1135 .def_1137))
(define-fun .def_1127 () Bool (= call_moesi.owned_mo call_moesi.ite31.next))
(define-fun .def_1128 () Bool (or call_moesi.garde_mo4.next .def_1127))
(define-fun .def_1124 () Bool (= call_moesi.owned_mo call_moesi.ite29.next))
(define-fun .def_1125 () Bool (or call_moesi.garde_mo1.next .def_1124))
(define-fun .def_1122 () Bool (= call_moesi.owned_mo call_moesi.ite30.next))
(define-fun .def_1123 () Bool (or call_moesi.garde_mo3.next .def_1122))
(define-fun .def_1126 () Bool (and .def_1123 .def_1125))
(define-fun .def_1129 () Bool (and .def_1126 .def_1128))
(define-fun .def_1117 () Bool (= call_moesi.invalid_mo call_moesi.ite25.next))
(define-fun .def_1118 () Bool (or call_moesi.garde_mo4.next .def_1117))
(define-fun .def_1114 () Bool (= call_moesi.invalid_mo call_moesi.ite24.next))
(define-fun .def_1115 () Bool (or call_moesi.garde_mo3.next .def_1114))
(define-fun .def_1109 () Int (* (- 1) call_moesi.ite23.next))
(define-fun .def_1110 () Int (+ call_moesi.invalid_mo .def_1109))
(define-fun .def_1111 () Bool (= .def_1110 1))
(define-fun .def_1112 () Bool (or .def_1063 .def_1111))
(define-fun .def_1107 () Bool (= call_moesi.invalid_mo call_moesi.ite23.next))
(define-fun .def_1108 () Bool (or call_moesi.garde_mo1.next .def_1107))
(define-fun .def_1113 () Bool (and .def_1108 .def_1112))
(define-fun .def_1116 () Bool (and .def_1113 .def_1115))
(define-fun .def_1119 () Bool (and .def_1116 .def_1118))
(define-fun .def_1102 () Bool (= call_moesi.shared_mo call_moesi.ite19.next))
(define-fun .def_1103 () Bool (or call_moesi.garde_mo4.next .def_1102))
(define-fun .def_1099 () Bool (= call_moesi.shared_mo call_moesi.ite17.next))
(define-fun .def_1100 () Bool (or call_moesi.garde_mo1.next .def_1099))
(define-fun .def_1097 () Bool (= call_moesi.shared_mo call_moesi.ite18.next))
(define-fun .def_1098 () Bool (or call_moesi.garde_mo3.next .def_1097))
(define-fun .def_1101 () Bool (and .def_1098 .def_1100))
(define-fun .def_1104 () Bool (and .def_1101 .def_1103))
(define-fun .def_1087 () Int (* (- 1) call_moesi.ite17.next))
(define-fun .def_1090 () Int (+ call_moesi.shared_mo .def_1087))
(define-fun .def_1091 () Int (+ call_moesi.exclusive_mo .def_1090))
(define-fun .def_1092 () Bool (= .def_1091 (- 1)))
(define-fun .def_1093 () Bool (or .def_1063 .def_1092))
(define-fun .def_1083 () Bool (= call_moesi.exclusive_mo call_moesi.ite12.next))
(define-fun .def_1084 () Bool (or call_moesi.garde_mo4.next .def_1083))
(define-fun .def_1080 () Bool (= call_moesi.exclusive_mo call_moesi.ite11.next))
(define-fun .def_1081 () Bool (or call_moesi.garde_mo3.next .def_1080))
(define-fun .def_1076 () Bool (= call_moesi.exclusive_mo call_moesi.ite10.next))
(define-fun .def_1077 () Bool (or call_moesi.garde_mo2.next .def_1076))
(define-fun .def_1073 () Bool (= call_moesi.exclusive_mo call_moesi.ite9.next))
(define-fun .def_1074 () Bool (or call_moesi.garde_mo1.next .def_1073))
(define-fun .def_1068 () Int (* (- 1) call_moesi.ite10.next))
(define-fun .def_1069 () Int (+ call_moesi.exclusive_mo .def_1068))
(define-fun .def_1070 () Bool (= .def_1069 1))
(define-fun .def_1006 () Bool (not call_moesi.garde_mo2.next))
(define-fun .def_1071 () Bool (or .def_1006 .def_1070))
(define-fun .def_1075 () Bool (and .def_1071 .def_1074))
(define-fun .def_1078 () Bool (and .def_1075 .def_1077))
(define-fun .def_1082 () Bool (and .def_1078 .def_1081))
(define-fun .def_1085 () Bool (and .def_1082 .def_1084))
(define-fun .def_1094 () Bool (and .def_1085 .def_1093))
(define-fun .def_1057 () Int (* (- 1) call_moesi.ite29.next))
(define-fun .def_1060 () Int (+ call_moesi.owned_mo .def_1057))
(define-fun .def_1061 () Int (+ call_moesi.modified_mo .def_1060))
(define-fun .def_1062 () Bool (= .def_1061 0))
(define-fun .def_1064 () Bool (or .def_1062 .def_1063))
(define-fun .def_1041 () Int (* (- 1) call_moesi.ite25.next))
(define-fun .def_1047 () Int (+ call_moesi.owned_mo .def_1041))
(define-fun .def_1048 () Int (+ call_moesi.invalid_mo .def_1047))
(define-fun .def_1049 () Int (+ call_moesi.shared_mo .def_1048))
(define-fun .def_1050 () Int (+ call_moesi.exclusive_mo .def_1049))
(define-fun .def_1051 () Int (+ call_moesi.modified_mo .def_1050))
(define-fun .def_1052 () Bool (= .def_1051 1))
(define-fun .def_1054 () Bool (or .def_1052 .def_1053))
(define-fun .def_1026 () Int (* (- 1) call_moesi.ite24.next))
(define-fun .def_1032 () Int (+ call_moesi.owned_mo .def_1026))
(define-fun .def_1033 () Int (+ call_moesi.invalid_mo .def_1032))
(define-fun .def_1034 () Int (+ call_moesi.shared_mo .def_1033))
(define-fun .def_1035 () Int (+ call_moesi.exclusive_mo .def_1034))
(define-fun .def_1036 () Int (+ call_moesi.modified_mo .def_1035))
(define-fun .def_1037 () Bool (= .def_1036 1))
(define-fun .def_1039 () Bool (or .def_1037 .def_1038))
(define-fun .def_1021 () Bool (= call_moesi.modified_mo call_moesi.ite4.next))
(define-fun .def_1023 () Bool (or .def_1021 call_moesi.garde_mo4.next))
(define-fun .def_1017 () Bool (= call_moesi.modified_mo call_moesi.ite3.next))
(define-fun .def_1019 () Bool (or .def_1017 call_moesi.garde_mo3.next))
(define-fun .def_1013 () Bool (= call_moesi.modified_mo call_moesi.ite2.next))
(define-fun .def_1014 () Bool (or call_moesi.garde_mo2.next .def_1013))
(define-fun .def_1009 () Bool (= call_moesi.modified_mo call_moesi.ite.next))
(define-fun .def_1011 () Bool (or .def_1009 call_moesi.garde_mo1.next))
(define-fun .def_1002 () Int (* (- 1) call_moesi.ite2.next))
(define-fun .def_1003 () Int (+ call_moesi.modified_mo .def_1002))
(define-fun .def_1004 () Bool (= .def_1003 (- 1)))
(define-fun .def_1007 () Bool (or .def_1004 .def_1006))
(define-fun .def_1012 () Bool (and .def_1007 .def_1011))
(define-fun .def_1015 () Bool (and .def_1012 .def_1014))
(define-fun .def_1020 () Bool (and .def_1015 .def_1019))
(define-fun .def_1024 () Bool (and .def_1020 .def_1023))
(define-fun .def_1040 () Bool (and .def_1024 .def_1039))
(define-fun .def_1055 () Bool (and .def_1040 .def_1054))
(define-fun .def_1065 () Bool (and .def_1055 .def_1064))
(define-fun .def_997 () Bool (= call_moesi.owned_mo call_moesi.ite32.next))
(define-fun .def_998 () Bool (or param_etat_mo4.next .def_997))
(define-fun .def_994 () Bool (= call_moesi.ite31.next call_moesi.ite32.next))
(define-fun .def_965 () Bool (not param_etat_mo4.next))
(define-fun .def_995 () Bool (or .def_965 .def_994))
(define-fun .def_989 () Bool (= call_moesi.invalid_mo call_moesi.ite26.next))
(define-fun .def_990 () Bool (or param_etat_mo4.next .def_989))
(define-fun .def_986 () Bool (= call_moesi.ite25.next call_moesi.ite26.next))
(define-fun .def_987 () Bool (or .def_965 .def_986))
(define-fun .def_981 () Bool (= call_moesi.shared_mo call_moesi.ite20.next))
(define-fun .def_982 () Bool (or param_etat_mo4.next .def_981))
(define-fun .def_978 () Bool (= call_moesi.ite19.next call_moesi.ite20.next))
(define-fun .def_979 () Bool (or .def_965 .def_978))
(define-fun .def_973 () Bool (= call_moesi.exclusive_mo call_moesi.ite13.next))
(define-fun .def_974 () Bool (or param_etat_mo4.next .def_973))
(define-fun .def_970 () Bool (= call_moesi.ite12.next call_moesi.ite13.next))
(define-fun .def_971 () Bool (or .def_965 .def_970))
(define-fun .def_964 () Bool (= call_moesi.ite5.next call_moesi.ite4.next))
(define-fun .def_966 () Bool (or .def_964 .def_965))
(define-fun .def_960 () Bool (= call_moesi.modified_mo call_moesi.ite5.next))
(define-fun .def_962 () Bool (or .def_960 param_etat_mo4.next))
(define-fun .def_967 () Bool (and .def_962 .def_966))
(define-fun .def_972 () Bool (and .def_967 .def_971))
(define-fun .def_975 () Bool (and .def_972 .def_974))
(define-fun .def_980 () Bool (and .def_975 .def_979))
(define-fun .def_983 () Bool (and .def_980 .def_982))
(define-fun .def_988 () Bool (and .def_983 .def_987))
(define-fun .def_991 () Bool (and .def_988 .def_990))
(define-fun .def_996 () Bool (and .def_991 .def_995))
(define-fun .def_999 () Bool (and .def_996 .def_998))
(define-fun .def_940 () Int (* (- 1) owned_mo.next))
(define-fun .def_937 () Int (* (- 1) invalid_mo.next))
(define-fun .def_947 () Int (+ .def_937 .def_940))
(define-fun .def_934 () Int (* (- 1) shared_mo.next))
(define-fun .def_948 () Int (+ .def_934 .def_947))
(define-fun .def_931 () Int (* (- 1) exclusive_mo.next))
(define-fun .def_949 () Int (+ .def_931 .def_948))
(define-fun .def_929 () Int (* (- 1) modified_mo.next))
(define-fun .def_950 () Int (+ .def_929 .def_949))
(define-fun .def_951 () Int (+ owned_mo .def_950))
(define-fun .def_952 () Int (+ invalid_mo .def_951))
(define-fun .def_953 () Int (+ shared_mo .def_952))
(define-fun .def_954 () Int (+ exclusive_mo .def_953))
(define-fun .def_955 () Int (+ modified_mo .def_954))
(define-fun .def_956 () Bool (= .def_955 0))
(define-fun .def_958 () Bool (= .def_956 flby.next))
(define-fun .def_1000 () Bool (and .def_958 .def_999))
(define-fun .def_1066 () Bool (and .def_1000 .def_1065))
(define-fun .def_1095 () Bool (and .def_1066 .def_1094))
(define-fun .def_1105 () Bool (and .def_1095 .def_1104))
(define-fun .def_1120 () Bool (and .def_1105 .def_1119))
(define-fun .def_1130 () Bool (and .def_1120 .def_1129))
(define-fun .def_1139 () Bool (and .def_1130 .def_1138))
(define-fun .def_1142 () Bool (and .def_1139 .def_1141))
(define-fun .def_1157 () Bool (and .def_1142 .def_1156))
(define-fun .def_1171 () Bool (and .def_1157 .def_1170))
(define-fun .def_1176 () Bool (and .def_1171 .def_1175))
(define-fun .def_1180 () Bool (and .def_1176 .def_1179))
(define-fun .def_1184 () Bool (and .def_1180 .def_1183))
(define-fun .def_1188 () Bool (and .def_1184 .def_1187))
(define-fun .def_1192 () Bool (and .def_1188 .def_1191))
(define-fun .def_1196 () Bool (and .def_1192 .def_1195))
(define-fun .def_1201 () Bool (and .def_1196 .def_1200))
(define-fun .def_1342 () Bool (and .def_1201 .def_1341))
(assert .def_1342)
